NAME : zqloutput/eax-hard-simple-rescaleandround/50-1.tsp
TYPE : TSP
DIMENSION : 50
EDGE_WEIGHT_TYPE : EUC_2D
NODE_COORD_SECTION
1 428644 395112
2 236659 720091
3 487275 6159
4 778313 583773
5 434587 109864
6 915883 575334
7 450098 624578
8 473298 11592
9 455050 618500
10 783800 325534
11 603507 541959
12 59057 785632
13 692381 532856
14 860359 306391
15 489954 580482
16 559041 789657
17 726135 246911
18 21511 868832
19 889145 110249
20 246531 244428
21 998674 603678
22 453735 75585
23 346385 360085
24 966075 930078
25 858012 320378
26 267049 915073
27 682476 370108
28 763894 510623
29 597149 366365
30 973273 372572
31 484378 110215
32 653915 905881
33 744807 192604
34 167812 427108
35 641266 470401
36 804214 815398
37 869811 148944
38 232085 208018
39 72305 525907
40 456164 804313
41 27323 77429
42 766751 236967
43 12342 485230
44 661801 752817
45 635148 421919
46 556459 645901
47 579353 978070
48 586439 146005
49 221375 666781
50 474067 528490
EOF
